NAME: kp_test_instance
OBJSENSE
 MIN
ROWS
 N cost
 L IDB
 L KP
 L I0
 L I1
 L I2
 L I3
 L I4
 L I5
 L I6
 L I7
 L I8
 L I9
 L I10
 L I11
 L I12
 L I13
 L I14
 L I15
 L I16
 L I17
 L I18
 L I19
 L I20
 L I21
 L I22
 L I23
 L I24
 L I25
 L I26
 L I27
 L I28
 L I29
 L I30
 L I31
 L I32
 L I33
 L I34
 L I35
 L I36
 L I37
 L I38
 L I39
 L I40
 L I41
 L I42
 L I43
 L I44
 L I45
 L I46
 L I47
 L I48
 L I49
 L I50
 L I51
 L I52
 L I53
 L I54
 L I55
 L I56
 L I57
 L I58
 L I59
 L I60
 L I61
 L I62
 L I63
 L I64
 L I65
 L I66
 L I67
 L I68
 L I69
 L I70
 L I71
 L I72
 L I73
 L I74
 L I75
 L I76
 L I77
 L I78
 L I79
 L I80
 L I81
 L I82
 L I83
 L I84
 L I85
 L I86
 L I87
 L I88
 L I89
 L I90
 L I91
 L I92
 L I93
 L I94
 L I95
 L I96
 L I97
 L I98
 L I99
COLUMNS
 x0 cost 0
 x0 IDB 1
 x0 I0 1
 x1 cost 0
 x1 IDB 1
 x1 I1 1
 x2 cost 0
 x2 IDB 1
 x2 I2 1
 x3 cost 0
 x3 IDB 1
 x3 I3 1
 x4 cost 0
 x4 IDB 1
 x4 I4 1
 x5 cost 0
 x5 IDB 1
 x5 I5 1
 x6 cost 0
 x6 IDB 1
 x6 I6 1
 x7 cost 0
 x7 IDB 1
 x7 I7 1
 x8 cost 0
 x8 IDB 1
 x8 I8 1
 x9 cost 0
 x9 IDB 1
 x9 I9 1
 x10 cost 0
 x10 IDB 1
 x10 I10 1
 x11 cost 0
 x11 IDB 1
 x11 I11 1
 x12 cost 0
 x12 IDB 1
 x12 I12 1
 x13 cost 0
 x13 IDB 1
 x13 I13 1
 x14 cost 0
 x14 IDB 1
 x14 I14 1
 x15 cost 0
 x15 IDB 1
 x15 I15 1
 x16 cost 0
 x16 IDB 1
 x16 I16 1
 x17 cost 0
 x17 IDB 1
 x17 I17 1
 x18 cost 0
 x18 IDB 1
 x18 I18 1
 x19 cost 0
 x19 IDB 1
 x19 I19 1
 x20 cost 0
 x20 IDB 1
 x20 I20 1
 x21 cost 0
 x21 IDB 1
 x21 I21 1
 x22 cost 0
 x22 IDB 1
 x22 I22 1
 x23 cost 0
 x23 IDB 1
 x23 I23 1
 x24 cost 0
 x24 IDB 1
 x24 I24 1
 x25 cost 0
 x25 IDB 1
 x25 I25 1
 x26 cost 0
 x26 IDB 1
 x26 I26 1
 x27 cost 0
 x27 IDB 1
 x27 I27 1
 x28 cost 0
 x28 IDB 1
 x28 I28 1
 x29 cost 0
 x29 IDB 1
 x29 I29 1
 x30 cost 0
 x30 IDB 1
 x30 I30 1
 x31 cost 0
 x31 IDB 1
 x31 I31 1
 x32 cost 0
 x32 IDB 1
 x32 I32 1
 x33 cost 0
 x33 IDB 1
 x33 I33 1
 x34 cost 0
 x34 IDB 1
 x34 I34 1
 x35 cost 0
 x35 IDB 1
 x35 I35 1
 x36 cost 0
 x36 IDB 1
 x36 I36 1
 x37 cost 0
 x37 IDB 1
 x37 I37 1
 x38 cost 0
 x38 IDB 1
 x38 I38 1
 x39 cost 0
 x39 IDB 1
 x39 I39 1
 x40 cost 0
 x40 IDB 1
 x40 I40 1
 x41 cost 0
 x41 IDB 1
 x41 I41 1
 x42 cost 0
 x42 IDB 1
 x42 I42 1
 x43 cost 0
 x43 IDB 1
 x43 I43 1
 x44 cost 0
 x44 IDB 1
 x44 I44 1
 x45 cost 0
 x45 IDB 1
 x45 I45 1
 x46 cost 0
 x46 IDB 1
 x46 I46 1
 x47 cost 0
 x47 IDB 1
 x47 I47 1
 x48 cost 0
 x48 IDB 1
 x48 I48 1
 x49 cost 0
 x49 IDB 1
 x49 I49 1
 x50 cost 0
 x50 IDB 1
 x50 I50 1
 x51 cost 0
 x51 IDB 1
 x51 I51 1
 x52 cost 0
 x52 IDB 1
 x52 I52 1
 x53 cost 0
 x53 IDB 1
 x53 I53 1
 x54 cost 0
 x54 IDB 1
 x54 I54 1
 x55 cost 0
 x55 IDB 1
 x55 I55 1
 x56 cost 0
 x56 IDB 1
 x56 I56 1
 x57 cost 0
 x57 IDB 1
 x57 I57 1
 x58 cost 0
 x58 IDB 1
 x58 I58 1
 x59 cost 0
 x59 IDB 1
 x59 I59 1
 x60 cost 0
 x60 IDB 1
 x60 I60 1
 x61 cost 0
 x61 IDB 1
 x61 I61 1
 x62 cost 0
 x62 IDB 1
 x62 I62 1
 x63 cost 0
 x63 IDB 1
 x63 I63 1
 x64 cost 0
 x64 IDB 1
 x64 I64 1
 x65 cost 0
 x65 IDB 1
 x65 I65 1
 x66 cost 0
 x66 IDB 1
 x66 I66 1
 x67 cost 0
 x67 IDB 1
 x67 I67 1
 x68 cost 0
 x68 IDB 1
 x68 I68 1
 x69 cost 0
 x69 IDB 1
 x69 I69 1
 x70 cost 0
 x70 IDB 1
 x70 I70 1
 x71 cost 0
 x71 IDB 1
 x71 I71 1
 x72 cost 0
 x72 IDB 1
 x72 I72 1
 x73 cost 0
 x73 IDB 1
 x73 I73 1
 x74 cost 0
 x74 IDB 1
 x74 I74 1
 x75 cost 0
 x75 IDB 1
 x75 I75 1
 x76 cost 0
 x76 IDB 1
 x76 I76 1
 x77 cost 0
 x77 IDB 1
 x77 I77 1
 x78 cost 0
 x78 IDB 1
 x78 I78 1
 x79 cost 0
 x79 IDB 1
 x79 I79 1
 x80 cost 0
 x80 IDB 1
 x80 I80 1
 x81 cost 0
 x81 IDB 1
 x81 I81 1
 x82 cost 0
 x82 IDB 1
 x82 I82 1
 x83 cost 0
 x83 IDB 1
 x83 I83 1
 x84 cost 0
 x84 IDB 1
 x84 I84 1
 x85 cost 0
 x85 IDB 1
 x85 I85 1
 x86 cost 0
 x86 IDB 1
 x86 I86 1
 x87 cost 0
 x87 IDB 1
 x87 I87 1
 x88 cost 0
 x88 IDB 1
 x88 I88 1
 x89 cost 0
 x89 IDB 1
 x89 I89 1
 x90 cost 0
 x90 IDB 1
 x90 I90 1
 x91 cost 0
 x91 IDB 1
 x91 I91 1
 x92 cost 0
 x92 IDB 1
 x92 I92 1
 x93 cost 0
 x93 IDB 1
 x93 I93 1
 x94 cost 0
 x94 IDB 1
 x94 I94 1
 x95 cost 0
 x95 IDB 1
 x95 I95 1
 x96 cost 0
 x96 IDB 1
 x96 I96 1
 x97 cost 0
 x97 IDB 1
 x97 I97 1
 x98 cost 0
 x98 IDB 1
 x98 I98 1
 x99 cost 0
 x99 IDB 1
 x99 I99 1
 y0 cost 1
 y0 I0 1
 y0 KP 40
 y1 cost 2
 y1 I1 1
 y1 KP 71
 y2 cost 2
 y2 I2 1
 y2 KP 33
 y3 cost 8
 y3 I3 1
 y3 KP 89
 y4 cost 10
 y4 I4 1
 y4 KP 88
 y5 cost 9
 y5 I5 1
 y5 KP 63
 y6 cost 18
 y6 I6 1
 y6 KP 98
 y7 cost 8
 y7 I7 1
 y7 KP 41
 y8 cost 20
 y8 I8 1
 y8 KP 92
 y9 cost 18
 y9 I9 1
 y9 KP 71
 y10 cost 12
 y10 I10 1
 y10 KP 44
 y11 cost 23
 y11 I11 1
 y11 KP 82
 y12 cost 20
 y12 I12 1
 y12 KP 62
 y13 cost 21
 y13 I13 1
 y13 KP 64
 y14 cost 17
 y14 I14 1
 y14 KP 50
 y15 cost 27
 y15 I15 1
 y15 KP 76
 y16 cost 37
 y16 I16 1
 y16 KP 91
 y17 cost 41
 y17 I17 1
 y17 KP 100
 y18 cost 33
 y18 I18 1
 y18 KP 80
 y19 cost 38
 y19 I19 1
 y19 KP 91
 y20 cost 38
 y20 I20 1
 y20 KP 87
 y21 cost 16
 y21 I21 1
 y21 KP 35
 y22 cost 38
 y22 I22 1
 y22 KP 83
 y23 cost 40
 y23 I23 1
 y23 KP 86
 y24 cost 41
 y24 I24 1
 y24 KP 81
 y25 cost 9
 y25 I25 1
 y25 KP 17
 y26 cost 22
 y26 I26 1
 y26 KP 40
 y27 cost 41
 y27 I27 1
 y27 KP 73
 y28 cost 57
 y28 I28 1
 y28 KP 97
 y29 cost 35
 y29 I29 1
 y29 KP 57
 y30 cost 31
 y30 I30 1
 y30 KP 50
 y31 cost 60
 y31 I31 1
 y31 KP 91
 y32 cost 49
 y32 I32 1
 y32 KP 69
 y33 cost 23
 y33 I33 1
 y33 KP 32
 y34 cost 50
 y34 I34 1
 y34 KP 69
 y35 cost 28
 y35 I35 1
 y35 KP 38
 y36 cost 50
 y36 I36 1
 y36 KP 67
 y37 cost 51
 y37 I37 1
 y37 KP 68
 y38 cost 40
 y38 I38 1
 y38 KP 53
 y39 cost 60
 y39 I39 1
 y39 KP 77
 y40 cost 60
 y40 I40 1
 y40 KP 77
 y41 cost 60
 y41 I41 1
 y41 KP 76
 y42 cost 78
 y42 I42 1
 y42 KP 96
 y43 cost 58
 y43 I43 1
 y43 KP 71
 y44 cost 80
 y44 I44 1
 y44 KP 96
 y45 cost 37
 y45 I45 1
 y45 KP 44
 y46 cost 73
 y46 I46 1
 y46 KP 85
 y47 cost 47
 y47 I47 1
 y47 KP 53
 y48 cost 52
 y48 I48 1
 y48 KP 58
 y49 cost 37
 y49 I49 1
 y49 KP 41
 y50 cost 89
 y50 I50 1
 y50 KP 97
 y51 cost 63
 y51 I51 1
 y51 KP 68
 y52 cost 44
 y52 I52 1
 y52 KP 47
 y53 cost 37
 y53 I53 1
 y53 KP 39
 y54 cost 22
 y54 I54 1
 y54 KP 23
 y55 cost 81
 y55 I55 1
 y55 KP 83
 y56 cost 87
 y56 I56 1
 y56 KP 84
 y57 cost 95
 y57 I57 1
 y57 KP 91
 y58 cost 74
 y58 I58 1
 y58 KP 70
 y59 cost 98
 y59 I59 1
 y59 KP 91
 y60 cost 92
 y60 I60 1
 y60 KP 84
 y61 cost 84
 y61 I61 1
 y61 KP 75
 y62 cost 52
 y62 I62 1
 y62 KP 44
 y63 cost 91
 y63 I63 1
 y63 KP 73
 y64 cost 93
 y64 I64 1
 y64 KP 74
 y65 cost 76
 y65 I65 1
 y65 KP 59
 y66 cost 64
 y66 I66 1
 y66 KP 48
 y67 cost 96
 y67 I67 1
 y67 KP 71
 y68 cost 59
 y68 I68 1
 y68 KP 43
 y69 cost 22
 y69 I69 1
 y69 KP 16
 y70 cost 79
 y70 I70 1
 y70 KP 56
 y71 cost 74
 y71 I71 1
 y71 KP 51
 y72 cost 96
 y72 I72 1
 y72 KP 64
 y73 cost 93
 y73 I73 1
 y73 KP 61
 y74 cost 32
 y74 I74 1
 y74 KP 20
 y75 cost 44
 y75 I75 1
 y75 KP 27
 y76 cost 75
 y76 I76 1
 y76 KP 44
 y77 cost 83
 y77 I77 1
 y77 KP 47
 y78 cost 93
 y78 I78 1
 y78 KP 52
 y79 cost 64
 y79 I79 1
 y79 KP 34
 y80 cost 99
 y80 I80 1
 y80 KP 51
 y81 cost 18
 y81 I81 1
 y81 KP 8
 y82 cost 50
 y82 I82 1
 y82 KP 22
 y83 cost 94
 y83 I83 1
 y83 KP 41
 y84 cost 81
 y84 I84 1
 y84 KP 35
 y85 cost 50
 y85 I85 1
 y85 KP 21
 y86 cost 46
 y86 I86 1
 y86 KP 19
 y87 cost 97
 y87 I87 1
 y87 KP 32
 y88 cost 71
 y88 I88 1
 y88 KP 23
 y89 cost 64
 y89 I89 1
 y89 KP 18
 y90 cost 84
 y90 I90 1
 y90 KP 23
 y91 cost 81
 y91 I91 1
 y91 KP 16
 y92 cost 50
 y92 I92 1
 y92 KP 9
 y93 cost 64
 y93 I93 1
 y93 KP 11
 y94 cost 59
 y94 I94 1
 y94 KP 9
 y95 cost 70
 y95 I95 1
 y95 KP 9
 y96 cost 80
 y96 I96 1
 y96 KP 10
 y97 cost 41
 y97 I97 1
 y97 KP 5
 y98 cost 79
 y98 I98 1
 y98 KP 5
 y99 cost 43
 y99 I99 1
 y99 KP 2
RHS
 rhs IDB 75
 rhs KP 688.0
 rhs I0 1
 rhs I1 1
 rhs I2 1
 rhs I3 1
 rhs I4 1
 rhs I5 1
 rhs I6 1
 rhs I7 1
 rhs I8 1
 rhs I9 1
 rhs I10 1
 rhs I11 1
 rhs I12 1
 rhs I13 1
 rhs I14 1
 rhs I15 1
 rhs I16 1
 rhs I17 1
 rhs I18 1
 rhs I19 1
 rhs I20 1
 rhs I21 1
 rhs I22 1
 rhs I23 1
 rhs I24 1
 rhs I25 1
 rhs I26 1
 rhs I27 1
 rhs I28 1
 rhs I29 1
 rhs I30 1
 rhs I31 1
 rhs I32 1
 rhs I33 1
 rhs I34 1
 rhs I35 1
 rhs I36 1
 rhs I37 1
 rhs I38 1
 rhs I39 1
 rhs I40 1
 rhs I41 1
 rhs I42 1
 rhs I43 1
 rhs I44 1
 rhs I45 1
 rhs I46 1
 rhs I47 1
 rhs I48 1
 rhs I49 1
 rhs I50 1
 rhs I51 1
 rhs I52 1
 rhs I53 1
 rhs I54 1
 rhs I55 1
 rhs I56 1
 rhs I57 1
 rhs I58 1
 rhs I59 1
 rhs I60 1
 rhs I61 1
 rhs I62 1
 rhs I63 1
 rhs I64 1
 rhs I65 1
 rhs I66 1
 rhs I67 1
 rhs I68 1
 rhs I69 1
 rhs I70 1
 rhs I71 1
 rhs I72 1
 rhs I73 1
 rhs I74 1
 rhs I75 1
 rhs I76 1
 rhs I77 1
 rhs I78 1
 rhs I79 1
 rhs I80 1
 rhs I81 1
 rhs I82 1
 rhs I83 1
 rhs I84 1
 rhs I85 1
 rhs I86 1
 rhs I87 1
 rhs I88 1
 rhs I89 1
 rhs I90 1
 rhs I91 1
 rhs I92 1
 rhs I93 1
 rhs I94 1
 rhs I95 1
 rhs I96 1
 rhs I97 1
 rhs I98 1
 rhs I99 1
BOUNDS
 LI bound x0 0.0000000
 UI bound x0 1.0000000
 LI bound x1 0.0000000
 UI bound x1 1.0000000
 LI bound x2 0.0000000
 UI bound x2 1.0000000
 LI bound x3 0.0000000
 UI bound x3 1.0000000
 LI bound x4 0.0000000
 UI bound x4 1.0000000
 LI bound x5 0.0000000
 UI bound x5 1.0000000
 LI bound x6 0.0000000
 UI bound x6 1.0000000
 LI bound x7 0.0000000
 UI bound x7 1.0000000
 LI bound x8 0.0000000
 UI bound x8 1.0000000
 LI bound x9 0.0000000
 UI bound x9 1.0000000
 LI bound x10 0.0000000
 UI bound x10 1.0000000
 LI bound x11 0.0000000
 UI bound x11 1.0000000
 LI bound x12 0.0000000
 UI bound x12 1.0000000
 LI bound x13 0.0000000
 UI bound x13 1.0000000
 LI bound x14 0.0000000
 UI bound x14 1.0000000
 LI bound x15 0.0000000
 UI bound x15 1.0000000
 LI bound x16 0.0000000
 UI bound x16 1.0000000
 LI bound x17 0.0000000
 UI bound x17 1.0000000
 LI bound x18 0.0000000
 UI bound x18 1.0000000
 LI bound x19 0.0000000
 UI bound x19 1.0000000
 LI bound x20 0.0000000
 UI bound x20 1.0000000
 LI bound x21 0.0000000
 UI bound x21 1.0000000
 LI bound x22 0.0000000
 UI bound x22 1.0000000
 LI bound x23 0.0000000
 UI bound x23 1.0000000
 LI bound x24 0.0000000
 UI bound x24 1.0000000
 LI bound x25 0.0000000
 UI bound x25 1.0000000
 LI bound x26 0.0000000
 UI bound x26 1.0000000
 LI bound x27 0.0000000
 UI bound x27 1.0000000
 LI bound x28 0.0000000
 UI bound x28 1.0000000
 LI bound x29 0.0000000
 UI bound x29 1.0000000
 LI bound x30 0.0000000
 UI bound x30 1.0000000
 LI bound x31 0.0000000
 UI bound x31 1.0000000
 LI bound x32 0.0000000
 UI bound x32 1.0000000
 LI bound x33 0.0000000
 UI bound x33 1.0000000
 LI bound x34 0.0000000
 UI bound x34 1.0000000
 LI bound x35 0.0000000
 UI bound x35 1.0000000
 LI bound x36 0.0000000
 UI bound x36 1.0000000
 LI bound x37 0.0000000
 UI bound x37 1.0000000
 LI bound x38 0.0000000
 UI bound x38 1.0000000
 LI bound x39 0.0000000
 UI bound x39 1.0000000
 LI bound x40 0.0000000
 UI bound x40 1.0000000
 LI bound x41 0.0000000
 UI bound x41 1.0000000
 LI bound x42 0.0000000
 UI bound x42 1.0000000
 LI bound x43 0.0000000
 UI bound x43 1.0000000
 LI bound x44 0.0000000
 UI bound x44 1.0000000
 LI bound x45 0.0000000
 UI bound x45 1.0000000
 LI bound x46 0.0000000
 UI bound x46 1.0000000
 LI bound x47 0.0000000
 UI bound x47 1.0000000
 LI bound x48 0.0000000
 UI bound x48 1.0000000
 LI bound x49 0.0000000
 UI bound x49 1.0000000
 LI bound x50 0.0000000
 UI bound x50 1.0000000
 LI bound x51 0.0000000
 UI bound x51 1.0000000
 LI bound x52 0.0000000
 UI bound x52 1.0000000
 LI bound x53 0.0000000
 UI bound x53 1.0000000
 LI bound x54 0.0000000
 UI bound x54 1.0000000
 LI bound x55 0.0000000
 UI bound x55 1.0000000
 LI bound x56 0.0000000
 UI bound x56 1.0000000
 LI bound x57 0.0000000
 UI bound x57 1.0000000
 LI bound x58 0.0000000
 UI bound x58 1.0000000
 LI bound x59 0.0000000
 UI bound x59 1.0000000
 LI bound x60 0.0000000
 UI bound x60 1.0000000
 LI bound x61 0.0000000
 UI bound x61 1.0000000
 LI bound x62 0.0000000
 UI bound x62 1.0000000
 LI bound x63 0.0000000
 UI bound x63 1.0000000
 LI bound x64 0.0000000
 UI bound x64 1.0000000
 LI bound x65 0.0000000
 UI bound x65 1.0000000
 LI bound x66 0.0000000
 UI bound x66 1.0000000
 LI bound x67 0.0000000
 UI bound x67 1.0000000
 LI bound x68 0.0000000
 UI bound x68 1.0000000
 LI bound x69 0.0000000
 UI bound x69 1.0000000
 LI bound x70 0.0000000
 UI bound x70 1.0000000
 LI bound x71 0.0000000
 UI bound x71 1.0000000
 LI bound x72 0.0000000
 UI bound x72 1.0000000
 LI bound x73 0.0000000
 UI bound x73 1.0000000
 LI bound x74 0.0000000
 UI bound x74 1.0000000
 LI bound x75 0.0000000
 UI bound x75 1.0000000
 LI bound x76 0.0000000
 UI bound x76 1.0000000
 LI bound x77 0.0000000
 UI bound x77 1.0000000
 LI bound x78 0.0000000
 UI bound x78 1.0000000
 LI bound x79 0.0000000
 UI bound x79 1.0000000
 LI bound x80 0.0000000
 UI bound x80 1.0000000
 LI bound x81 0.0000000
 UI bound x81 1.0000000
 LI bound x82 0.0000000
 UI bound x82 1.0000000
 LI bound x83 0.0000000
 UI bound x83 1.0000000
 LI bound x84 0.0000000
 UI bound x84 1.0000000
 LI bound x85 0.0000000
 UI bound x85 1.0000000
 LI bound x86 0.0000000
 UI bound x86 1.0000000
 LI bound x87 0.0000000
 UI bound x87 1.0000000
 LI bound x88 0.0000000
 UI bound x88 1.0000000
 LI bound x89 0.0000000
 UI bound x89 1.0000000
 LI bound x90 0.0000000
 UI bound x90 1.0000000
 LI bound x91 0.0000000
 UI bound x91 1.0000000
 LI bound x92 0.0000000
 UI bound x92 1.0000000
 LI bound x93 0.0000000
 UI bound x93 1.0000000
 LI bound x94 0.0000000
 UI bound x94 1.0000000
 LI bound x95 0.0000000
 UI bound x95 1.0000000
 LI bound x96 0.0000000
 UI bound x96 1.0000000
 LI bound x97 0.0000000
 UI bound x97 1.0000000
 LI bound x98 0.0000000
 UI bound x98 1.0000000
 LI bound x99 0.0000000
 UI bound x99 1.0000000
 LI bound y0 0.0000000
 UI bound y0 1.0000000
 LI bound y1 0.0000000
 UI bound y1 1.0000000
 LI bound y2 0.0000000
 UI bound y2 1.0000000
 LI bound y3 0.0000000
 UI bound y3 1.0000000
 LI bound y4 0.0000000
 UI bound y4 1.0000000
 LI bound y5 0.0000000
 UI bound y5 1.0000000
 LI bound y6 0.0000000
 UI bound y6 1.0000000
 LI bound y7 0.0000000
 UI bound y7 1.0000000
 LI bound y8 0.0000000
 UI bound y8 1.0000000
 LI bound y9 0.0000000
 UI bound y9 1.0000000
 LI bound y10 0.0000000
 UI bound y10 1.0000000
 LI bound y11 0.0000000
 UI bound y11 1.0000000
 LI bound y12 0.0000000
 UI bound y12 1.0000000
 LI bound y13 0.0000000
 UI bound y13 1.0000000
 LI bound y14 0.0000000
 UI bound y14 1.0000000
 LI bound y15 0.0000000
 UI bound y15 1.0000000
 LI bound y16 0.0000000
 UI bound y16 1.0000000
 LI bound y17 0.0000000
 UI bound y17 1.0000000
 LI bound y18 0.0000000
 UI bound y18 1.0000000
 LI bound y19 0.0000000
 UI bound y19 1.0000000
 LI bound y20 0.0000000
 UI bound y20 1.0000000
 LI bound y21 0.0000000
 UI bound y21 1.0000000
 LI bound y22 0.0000000
 UI bound y22 1.0000000
 LI bound y23 0.0000000
 UI bound y23 1.0000000
 LI bound y24 0.0000000
 UI bound y24 1.0000000
 LI bound y25 0.0000000
 UI bound y25 1.0000000
 LI bound y26 0.0000000
 UI bound y26 1.0000000
 LI bound y27 0.0000000
 UI bound y27 1.0000000
 LI bound y28 0.0000000
 UI bound y28 1.0000000
 LI bound y29 0.0000000
 UI bound y29 1.0000000
 LI bound y30 0.0000000
 UI bound y30 1.0000000
 LI bound y31 0.0000000
 UI bound y31 1.0000000
 LI bound y32 0.0000000
 UI bound y32 1.0000000
 LI bound y33 0.0000000
 UI bound y33 1.0000000
 LI bound y34 0.0000000
 UI bound y34 1.0000000
 LI bound y35 0.0000000
 UI bound y35 1.0000000
 LI bound y36 0.0000000
 UI bound y36 1.0000000
 LI bound y37 0.0000000
 UI bound y37 1.0000000
 LI bound y38 0.0000000
 UI bound y38 1.0000000
 LI bound y39 0.0000000
 UI bound y39 1.0000000
 LI bound y40 0.0000000
 UI bound y40 1.0000000
 LI bound y41 0.0000000
 UI bound y41 1.0000000
 LI bound y42 0.0000000
 UI bound y42 1.0000000
 LI bound y43 0.0000000
 UI bound y43 1.0000000
 LI bound y44 0.0000000
 UI bound y44 1.0000000
 LI bound y45 0.0000000
 UI bound y45 1.0000000
 LI bound y46 0.0000000
 UI bound y46 1.0000000
 LI bound y47 0.0000000
 UI bound y47 1.0000000
 LI bound y48 0.0000000
 UI bound y48 1.0000000
 LI bound y49 0.0000000
 UI bound y49 1.0000000
 LI bound y50 0.0000000
 UI bound y50 1.0000000
 LI bound y51 0.0000000
 UI bound y51 1.0000000
 LI bound y52 0.0000000
 UI bound y52 1.0000000
 LI bound y53 0.0000000
 UI bound y53 1.0000000
 LI bound y54 0.0000000
 UI bound y54 1.0000000
 LI bound y55 0.0000000
 UI bound y55 1.0000000
 LI bound y56 0.0000000
 UI bound y56 1.0000000
 LI bound y57 0.0000000
 UI bound y57 1.0000000
 LI bound y58 0.0000000
 UI bound y58 1.0000000
 LI bound y59 0.0000000
 UI bound y59 1.0000000
 LI bound y60 0.0000000
 UI bound y60 1.0000000
 LI bound y61 0.0000000
 UI bound y61 1.0000000
 LI bound y62 0.0000000
 UI bound y62 1.0000000
 LI bound y63 0.0000000
 UI bound y63 1.0000000
 LI bound y64 0.0000000
 UI bound y64 1.0000000
 LI bound y65 0.0000000
 UI bound y65 1.0000000
 LI bound y66 0.0000000
 UI bound y66 1.0000000
 LI bound y67 0.0000000
 UI bound y67 1.0000000
 LI bound y68 0.0000000
 UI bound y68 1.0000000
 LI bound y69 0.0000000
 UI bound y69 1.0000000
 LI bound y70 0.0000000
 UI bound y70 1.0000000
 LI bound y71 0.0000000
 UI bound y71 1.0000000
 LI bound y72 0.0000000
 UI bound y72 1.0000000
 LI bound y73 0.0000000
 UI bound y73 1.0000000
 LI bound y74 0.0000000
 UI bound y74 1.0000000
 LI bound y75 0.0000000
 UI bound y75 1.0000000
 LI bound y76 0.0000000
 UI bound y76 1.0000000
 LI bound y77 0.0000000
 UI bound y77 1.0000000
 LI bound y78 0.0000000
 UI bound y78 1.0000000
 LI bound y79 0.0000000
 UI bound y79 1.0000000
 LI bound y80 0.0000000
 UI bound y80 1.0000000
 LI bound y81 0.0000000
 UI bound y81 1.0000000
 LI bound y82 0.0000000
 UI bound y82 1.0000000
 LI bound y83 0.0000000
 UI bound y83 1.0000000
 LI bound y84 0.0000000
 UI bound y84 1.0000000
 LI bound y85 0.0000000
 UI bound y85 1.0000000
 LI bound y86 0.0000000
 UI bound y86 1.0000000
 LI bound y87 0.0000000
 UI bound y87 1.0000000
 LI bound y88 0.0000000
 UI bound y88 1.0000000
 LI bound y89 0.0000000
 UI bound y89 1.0000000
 LI bound y90 0.0000000
 UI bound y90 1.0000000
 LI bound y91 0.0000000
 UI bound y91 1.0000000
 LI bound y92 0.0000000
 UI bound y92 1.0000000
 LI bound y93 0.0000000
 UI bound y93 1.0000000
 LI bound y94 0.0000000
 UI bound y94 1.0000000
 LI bound y95 0.0000000
 UI bound y95 1.0000000
 LI bound y96 0.0000000
 UI bound y96 1.0000000
 LI bound y97 0.0000000
 UI bound y97 1.0000000
 LI bound y98 0.0000000
 UI bound y98 1.0000000
 LI bound y99 0.0000000
 UI bound y99 1.0000000
ENDATA